% seed = 4388196

mint = 56;
% maxt = 213;

nActs = 42;
dur = [0,3,1,1,6,7,3,8,9,8,10,2,7,8,8,3,7,4,2,8,2,1,1,6,10,10,3,3,8,6,6,8,2,1,8,1,7,4,4,9,8,0];

nSkills = 4;
sreq = [| 0,0,0,0,
	| 6,3,4,0,
	| 6,5,0,3,
	| 3,3,3,0,
	| 3,2,3,0,
	| 0,5,6,5,
	| 2,4,0,3,
	| 6,0,2,5,
	| 3,4,3,0,
	| 1,2,0,7,
	| 4,2,0,6,
	| 7,1,0,5,
	| 3,3,0,3,
	| 0,4,1,5,
	| 3,1,0,6,
	| 6,0,5,4,
	| 5,6,4,0,
	| 5,4,4,0,
	| 4,2,0,4,
	| 0,3,3,4,
	| 0,4,4,3,
	| 4,3,3,0,
	| 0,5,5,4,
	| 2,3,7,0,
	| 0,6,7,3,
	| 2,5,0,4,
	| 2,3,0,7,
	| 6,3,7,0,
	| 4,0,7,5,
	| 3,2,0,5,
	| 4,7,5,0,
	| 4,0,2,7,
	| 1,4,4,0,
	| 1,4,0,7,
	| 5,0,4,3,
	| 3,5,2,0,
	| 4,0,4,3,
	| 6,0,3,5,
	| 0,5,2,2,
	| 7,1,5,0,
	| 4,5,5,0,
	| 0,0,0,0, |];

nResources = 30;
mastery = [| false,true,false,true,
	| true,false,false,false,
	| true,false,true,false,
	| false,false,true,true,
	| false,true,true,true,
	| false,true,true,false,
	| true,false,true,false,
	| false,false,true,false,
	| false,true,false,false,
	| false,true,true,false,
	| true,false,false,false,
	| true,false,false,true,
	| true,true,false,true,
	| false,true,false,false,
	| true,true,true,false,
	| true,true,false,true,
	| true,false,false,false,
	| false,true,true,false,
	| true,false,false,true,
	| true,true,false,true,
	| true,true,true,false,
	| false,false,false,true,
	| true,true,false,false,
	| true,false,true,true,
	| true,false,true,true,
	| false,true,false,false,
	| false,false,false,true,
	| false,true,true,false,
	| true,true,true,false,
	| false,false,true,false, |];

nPrecs = 61;
pred = [1,1,1,2,2,2,3,3,3,4,4,5,6,6,6,7,8,8,8,9,9,9,10,10,11,11,12,13,14,15,16,16,17,18,19,19,20,20,21,21,22,23,24,25,25,26,27,28,29,30,31,32,33,34,35,36,37,38,39,40,41];
succ = [2,3,4,17,10,19,16,6,8,5,7,22,27,12,13,31,9,11,15,18,20,14,36,38,20,38,17,37,21,25,34,37,26,22,28,24,35,39,29,23,25,36,32,29,30,30,38,33,41,32,37,40,40,39,36,40,41,41,42,42,42];

nUnrels = 578;
unpred = [2,2,2,2,2,2,2,2,2,2,2,2,2,2,2,2,2,2,2,2,2,2,2,2,2,2,3,3,3,3,3,3,3,3,3,4,4,4,4,4,4,4,4,4,4,4,4,4,4,4,4,4,4,4,4,4,4,4,4,4,4,5,5,5,5,5,5,5,5,5,5,5,5,5,5,5,5,5,5,5,5,5,5,5,5,5,5,5,5,5,6,6,6,6,6,6,6,6,6,6,6,6,6,6,6,6,6,6,6,6,6,6,6,6,7,7,7,7,7,7,7,7,7,7,7,7,7,7,7,7,7,7,7,7,7,7,7,7,7,7,7,7,7,7,7,8,8,8,8,8,8,8,8,8,8,8,8,8,8,9,9,9,9,9,9,9,9,9,9,9,9,9,9,9,9,9,10,10,10,10,10,10,10,10,10,10,10,10,10,10,10,10,10,10,10,10,10,10,10,10,10,10,10,11,11,11,11,11,11,11,11,11,11,11,11,11,11,11,11,11,11,11,11,11,11,11,12,12,12,12,12,12,12,12,12,12,12,12,12,12,12,12,12,12,12,12,12,12,12,12,13,13,13,13,13,13,13,13,13,13,13,13,13,13,13,13,13,13,13,13,13,13,13,13,13,13,14,14,14,14,14,14,14,14,14,14,14,14,14,14,14,14,14,14,14,14,14,15,15,15,15,15,15,15,15,15,15,15,15,15,15,15,15,15,15,15,15,16,16,16,16,16,16,16,16,16,16,16,16,16,16,16,16,16,16,16,16,16,17,17,17,17,17,17,17,17,17,17,17,17,17,17,17,17,17,17,17,17,18,18,18,18,18,18,18,18,18,18,18,18,18,18,18,18,19,19,19,19,19,19,19,19,19,19,19,19,19,19,19,19,19,20,20,20,20,20,20,20,20,20,20,20,20,20,20,20,20,20,21,21,21,21,21,21,21,21,21,21,21,21,21,21,21,22,22,22,22,22,22,22,22,22,22,22,22,22,23,23,23,23,23,23,23,23,23,23,23,23,23,23,23,23,24,24,24,24,24,24,24,24,24,24,24,24,24,24,24,25,25,25,25,25,25,25,25,25,25,25,26,26,26,26,26,26,26,26,26,26,26,26,27,27,27,27,27,27,27,27,27,27,27,27,28,28,28,28,28,28,28,28,28,28,28,29,29,29,29,29,29,29,29,29,29,29,30,30,30,30,30,30,30,30,30,31,31,31,31,31,31,31,31,32,32,32,32,32,32,32,32,33,33,33,33,33,33,33,34,34,34,34,34,34,35,35,35,35,36,36,36,36,37,37,37,38,38,39,39,40];
unsucc = [3,4,5,6,7,8,9,11,12,13,14,15,16,18,20,21,22,23,25,27,29,31,34,35,37,39,4,5,7,10,19,24,28,31,33,6,8,9,10,11,12,13,14,15,16,17,18,19,20,21,23,24,26,27,28,33,34,35,36,38,39,6,7,8,9,10,11,12,13,14,15,16,17,18,19,20,21,23,24,26,27,28,31,33,34,35,36,37,38,39,7,8,9,10,11,14,15,16,18,19,20,21,22,23,24,25,28,29,31,33,34,35,36,39,8,9,10,11,12,13,14,15,16,17,18,19,20,21,22,23,24,25,26,27,28,29,30,32,33,34,35,36,38,39,40,10,12,13,16,17,19,24,26,27,28,31,33,34,37,10,11,12,13,15,16,17,19,24,26,27,28,31,33,34,37,38,11,12,13,14,15,16,17,18,19,20,21,22,23,24,25,26,27,28,29,30,31,32,33,34,35,37,39,12,13,14,15,16,17,18,19,21,22,23,24,25,26,27,28,29,30,31,32,33,34,37,13,14,15,16,18,19,20,21,22,23,24,25,27,28,29,31,33,34,35,36,37,38,39,41,14,15,16,17,18,19,20,21,22,23,24,25,26,27,28,29,30,31,32,33,34,35,36,38,39,40,15,16,17,18,19,20,22,24,25,26,27,28,30,31,32,33,34,35,37,38,39,16,17,18,19,20,21,22,23,24,26,27,28,31,33,34,35,36,37,38,39,17,18,19,20,21,22,23,24,25,26,27,28,29,30,31,32,33,35,36,38,40,18,19,20,21,22,23,24,25,27,28,29,31,33,34,35,36,37,38,39,41,19,20,21,23,24,26,27,28,31,33,34,35,36,37,38,39,20,21,22,23,25,26,27,29,30,31,34,35,36,37,38,39,41,21,22,23,24,25,26,27,28,29,30,31,32,33,34,37,38,41,22,24,25,26,27,28,30,31,32,33,34,35,37,38,39,23,24,26,27,28,31,33,34,35,36,37,38,39,24,25,26,27,28,29,30,31,32,33,34,35,37,38,39,41,25,26,27,28,29,30,31,33,34,35,36,37,38,39,41,26,27,28,31,33,34,35,36,37,38,39,27,28,29,31,33,34,35,36,37,38,39,41,28,29,30,31,32,33,34,35,36,37,39,40,29,30,31,32,34,35,36,37,38,39,41,30,31,32,33,34,35,36,37,38,39,40,31,33,34,35,36,37,38,39,41,32,33,34,35,36,38,39,40,33,34,35,36,37,38,39,41,34,35,36,37,38,39,41,35,36,37,38,40,41,37,38,39,41,37,38,39,41,38,39,40,39,40,40,41,41];

USEFUL_RES = [{},
	{1,2,3,4,5,6,7,8,9,10,11,12,13,14,15,16,17,18,19,20,21,23,24,25,26,28,29,30},
	{1,2,3,4,5,6,7,9,10,11,12,13,14,15,16,17,18,19,20,21,22,23,24,25,26,27,28,29},
	{1,2,3,4,5,6,7,8,9,10,11,12,13,14,15,16,17,18,19,20,21,23,24,25,26,28,29,30},
	{1,2,3,4,5,6,7,8,9,10,11,12,13,14,15,16,17,18,19,20,21,23,24,25,26,28,29,30},
	{1,3,4,5,6,7,8,9,10,12,13,14,15,16,18,19,20,21,22,23,24,25,26,27,28,29,30},
	{1,2,3,4,5,6,7,9,10,11,12,13,14,15,16,17,18,19,20,21,22,23,24,25,26,27,28,29},
	{1,2,3,4,5,6,7,8,10,11,12,13,15,16,17,18,19,20,21,22,23,24,25,27,28,29,30},
	{1,2,3,4,5,6,7,8,9,10,11,12,13,14,15,16,17,18,19,20,21,23,24,25,26,28,29,30},
	{1,2,3,4,5,6,7,9,10,11,12,13,14,15,16,17,18,19,20,21,22,23,24,25,26,27,28,29},
	{1,2,3,4,5,6,7,9,10,11,12,13,14,15,16,17,18,19,20,21,22,23,24,25,26,27,28,29},
	{1,2,3,4,5,6,7,9,10,11,12,13,14,15,16,17,18,19,20,21,22,23,24,25,26,27,28,29},
	{1,2,3,4,5,6,7,9,10,11,12,13,14,15,16,17,18,19,20,21,22,23,24,25,26,27,28,29},
	{1,3,4,5,6,7,8,9,10,12,13,14,15,16,18,19,20,21,22,23,24,25,26,27,28,29,30},
	{1,2,3,4,5,6,7,9,10,11,12,13,14,15,16,17,18,19,20,21,22,23,24,25,26,27,28,29},
	{1,2,3,4,5,6,7,8,10,11,12,13,15,16,17,18,19,20,21,22,23,24,25,27,28,29,30},
	{1,2,3,4,5,6,7,8,9,10,11,12,13,14,15,16,17,18,19,20,21,23,24,25,26,28,29,30},
	{1,2,3,4,5,6,7,8,9,10,11,12,13,14,15,16,17,18,19,20,21,23,24,25,26,28,29,30},
	{1,2,3,4,5,6,7,9,10,11,12,13,14,15,16,17,18,19,20,21,22,23,24,25,26,27,28,29},
	{1,3,4,5,6,7,8,9,10,12,13,14,15,16,18,19,20,21,22,23,24,25,26,27,28,29,30},
	{1,3,4,5,6,7,8,9,10,12,13,14,15,16,18,19,20,21,22,23,24,25,26,27,28,29,30},
	{1,2,3,4,5,6,7,8,9,10,11,12,13,14,15,16,17,18,19,20,21,23,24,25,26,28,29,30},
	{1,3,4,5,6,7,8,9,10,12,13,14,15,16,18,19,20,21,22,23,24,25,26,27,28,29,30},
	{1,2,3,4,5,6,7,8,9,10,11,12,13,14,15,16,17,18,19,20,21,23,24,25,26,28,29,30},
	{1,3,4,5,6,7,8,9,10,12,13,14,15,16,18,19,20,21,22,23,24,25,26,27,28,29,30},
	{1,2,3,4,5,6,7,9,10,11,12,13,14,15,16,17,18,19,20,21,22,23,24,25,26,27,28,29},
	{1,2,3,4,5,6,7,9,10,11,12,13,14,15,16,17,18,19,20,21,22,23,24,25,26,27,28,29},
	{1,2,3,4,5,6,7,8,9,10,11,12,13,14,15,16,17,18,19,20,21,23,24,25,26,28,29,30},
	{1,2,3,4,5,6,7,8,10,11,12,13,15,16,17,18,19,20,21,22,23,24,25,27,28,29,30},
	{1,2,3,4,5,6,7,9,10,11,12,13,14,15,16,17,18,19,20,21,22,23,24,25,26,27,28,29},
	{1,2,3,4,5,6,7,8,9,10,11,12,13,14,15,16,17,18,19,20,21,23,24,25,26,28,29,30},
	{1,2,3,4,5,6,7,8,10,11,12,13,15,16,17,18,19,20,21,22,23,24,25,27,28,29,30},
	{1,2,3,4,5,6,7,8,9,10,11,12,13,14,15,16,17,18,19,20,21,23,24,25,26,28,29,30},
	{1,2,3,4,5,6,7,9,10,11,12,13,14,15,16,17,18,19,20,21,22,23,24,25,26,27,28,29},
	{1,2,3,4,5,6,7,8,10,11,12,13,15,16,17,18,19,20,21,22,23,24,25,27,28,29,30},
	{1,2,3,4,5,6,7,8,9,10,11,12,13,14,15,16,17,18,19,20,21,23,24,25,26,28,29,30},
	{1,2,3,4,5,6,7,8,10,11,12,13,15,16,17,18,19,20,21,22,23,24,25,27,28,29,30},
	{1,2,3,4,5,6,7,8,10,11,12,13,15,16,17,18,19,20,21,22,23,24,25,27,28,29,30},
	{1,3,4,5,6,7,8,9,10,12,13,14,15,16,18,19,20,21,22,23,24,25,26,27,28,29,30},
	{1,2,3,4,5,6,7,8,9,10,11,12,13,14,15,16,17,18,19,20,21,23,24,25,26,28,29,30},
	{1,2,3,4,5,6,7,8,9,10,11,12,13,14,15,16,17,18,19,20,21,23,24,25,26,28,29,30},
	{}];

POTENTIAL_ACT = [{2,3,4,5,6,7,8,9,10,11,12,13,14,15,16,17,18,19,20,21,22,23,24,25,26,27,28,29,30,31,32,33,34,35,36,37,38,39,40,41},
	{2,3,4,5,7,8,9,10,11,12,13,15,16,17,18,19,22,24,26,27,28,29,30,31,32,33,34,35,36,37,38,40,41},
	{2,3,4,5,6,7,8,9,10,11,12,13,14,15,16,17,18,19,20,21,22,23,24,25,26,27,28,29,30,31,32,33,34,35,36,37,38,39,40,41},
	{2,3,4,5,6,7,8,9,10,11,12,13,14,15,16,17,18,19,20,21,22,23,24,25,26,27,28,29,30,31,32,33,34,35,36,37,38,39,40,41},
	{2,3,4,5,6,7,8,9,10,11,12,13,14,15,16,17,18,19,20,21,22,23,24,25,26,27,28,29,30,31,32,33,34,35,36,37,38,39,40,41},
	{2,3,4,5,6,7,8,9,10,11,12,13,14,15,16,17,18,19,20,21,22,23,24,25,26,27,28,29,30,31,32,33,34,35,36,37,38,39,40,41},
	{2,3,4,5,6,7,8,9,10,11,12,13,14,15,16,17,18,19,20,21,22,23,24,25,26,27,28,29,30,31,32,33,34,35,36,37,38,39,40,41},
	{2,4,5,6,8,9,14,16,17,18,20,21,22,23,24,25,28,29,31,32,33,35,36,37,38,39,40,41},
	{2,3,4,5,6,7,9,10,11,12,13,14,15,17,18,19,20,21,22,23,24,25,26,27,28,30,31,33,34,36,39,40,41},
	{2,3,4,5,6,7,8,9,10,11,12,13,14,15,16,17,18,19,20,21,22,23,24,25,26,27,28,29,30,31,32,33,34,35,36,37,38,39,40,41},
	{2,3,4,5,7,8,9,10,11,12,13,15,16,17,18,19,22,24,26,27,28,29,30,31,32,33,34,35,36,37,38,40,41},
	{2,3,4,5,6,7,8,9,10,11,12,13,14,15,16,17,18,19,20,21,22,23,24,25,26,27,28,29,30,31,32,33,34,35,36,37,38,39,40,41},
	{2,3,4,5,6,7,8,9,10,11,12,13,14,15,16,17,18,19,20,21,22,23,24,25,26,27,28,29,30,31,32,33,34,35,36,37,38,39,40,41},
	{2,3,4,5,6,7,9,10,11,12,13,14,15,17,18,19,20,21,22,23,24,25,26,27,28,30,31,33,34,36,39,40,41},
	{2,3,4,5,6,7,8,9,10,11,12,13,14,15,16,17,18,19,20,21,22,23,24,25,26,27,28,29,30,31,32,33,34,35,36,37,38,39,40,41},
	{2,3,4,5,6,7,8,9,10,11,12,13,14,15,16,17,18,19,20,21,22,23,24,25,26,27,28,29,30,31,32,33,34,35,36,37,38,39,40,41},
	{2,3,4,5,7,8,9,10,11,12,13,15,16,17,18,19,22,24,26,27,28,29,30,31,32,33,34,35,36,37,38,40,41},
	{2,3,4,5,6,7,8,9,10,11,12,13,14,15,16,17,18,19,20,21,22,23,24,25,26,27,28,29,30,31,32,33,34,35,36,37,38,39,40,41},
	{2,3,4,5,6,7,8,9,10,11,12,13,14,15,16,17,18,19,20,21,22,23,24,25,26,27,28,29,30,31,32,33,34,35,36,37,38,39,40,41},
	{2,3,4,5,6,7,8,9,10,11,12,13,14,15,16,17,18,19,20,21,22,23,24,25,26,27,28,29,30,31,32,33,34,35,36,37,38,39,40,41},
	{2,3,4,5,6,7,8,9,10,11,12,13,14,15,16,17,18,19,20,21,22,23,24,25,26,27,28,29,30,31,32,33,34,35,36,37,38,39,40,41},
	{3,6,7,8,10,11,12,13,14,15,16,19,20,21,23,25,26,27,29,30,32,34,35,37,38,39},
	{2,3,4,5,6,7,8,9,10,11,12,13,14,15,16,17,18,19,20,21,22,23,24,25,26,27,28,29,30,31,32,33,34,35,36,37,38,39,40,41},
	{2,3,4,5,6,7,8,9,10,11,12,13,14,15,16,17,18,19,20,21,22,23,24,25,26,27,28,29,30,31,32,33,34,35,36,37,38,39,40,41},
	{2,3,4,5,6,7,8,9,10,11,12,13,14,15,16,17,18,19,20,21,22,23,24,25,26,27,28,29,30,31,32,33,34,35,36,37,38,39,40,41},
	{2,3,4,5,6,7,9,10,11,12,13,14,15,17,18,19,20,21,22,23,24,25,26,27,28,30,31,33,34,36,39,40,41},
	{3,6,7,8,10,11,12,13,14,15,16,19,20,21,23,25,26,27,29,30,32,34,35,37,38,39},
	{2,3,4,5,6,7,8,9,10,11,12,13,14,15,16,17,18,19,20,21,22,23,24,25,26,27,28,29,30,31,32,33,34,35,36,37,38,39,40,41},
	{2,3,4,5,6,7,8,9,10,11,12,13,14,15,16,17,18,19,20,21,22,23,24,25,26,27,28,29,30,31,32,33,34,35,36,37,38,39,40,41},
	{2,4,5,6,8,9,14,16,17,18,20,21,22,23,24,25,28,29,31,32,33,35,36,37,38,39,40,41}];
